Name:		mgval_0.50_8B
Optimal value:	-1
#Vehicles:	4
Capacity:	150
Depot Node:	1
#Nodes:		30
#Edges:		27
#Arcs:		64
#Required N:	23
#Required E:	13
#Required A:	32

ReN.	DEMAND	S. COST
N2	9	9
N3	6	6
N5	8	8
N8	22	22
N9	13	13
N10	13	13
N11	3	3
N12	10	10
N13	25	25
N15	38	38
N16	25	25
N17	5	5
N18	11	11
N20	5	5
N21	7	7
N22	12	12
N23	6	6
N24	3	3
N25	2	2
N27	13	13
N28	28	28
N29	16	16
N30	2	2

ReE.	FROM N.	TO N.	T. COST	DEMAND	S. COST
E15	10	19	10	12	12
E16	26	30	3	4	4
E17	16	21	7	8	8
E18	21	29	8	10	10
E19	7	12	8	11	11
E20	6	11	7	10	10
E21	4	5	5	11	11
E22	22	29	4	7	7
E23	14	17	4	8	8
E24	8	9	7	18	18
E25	14	15	9	10	10
E26	23	26	7	10	10
E27	4	7	1	4	4

EDGE	FROM N.	TO N.	T. COST
NrE1	1	2	4
NrE2	16	17	9
NrE3	15	18	3
NrE4	13	14	5
NrE5	28	29	7
NrE6	15	19	7
NrE7	29	30	6
NrE8	13	17	7
NrE9	20	24	2
NrE10	8	14	7
NrE11	18	19	2
NrE12	22	23	10
NrE13	12	13	3
NrE14	10	15	5

ReA.	FROM N.	TO N.	T. COST	DEMAND	S. COST
A33	12	11	5	4	4
A34	8	13	6	5	5
A35	21	20	7	5	5
A36	11	16	5	6	6
A37	20	27	5	4	4
A38	7	6	3	3	3
A39	25	30	1	2	2
A40	8	7	8	5	5
A41	1	9	10	16	16
A42	22	17	5	3	3
A43	24	21	5	3	3
A44	4	6	3	8	8
A45	25	22	2	6	6
A46	18	26	9	6	6
A47	6	7	3	3	3
A48	22	21	5	4	4
A49	13	16	8	5	5
A50	7	8	8	4	4
A51	26	18	9	6	6
A52	5	1	3	4	4
A53	16	11	5	6	6
A54	10	9	3	5	5
A55	20	16	3	3	3
A56	2	9	5	4	4
A57	20	21	7	4	4
A58	2	3	3	6	6
A59	18	23	3	3	3
A60	17	22	5	3	3
A61	30	23	3	3	3
A62	21	22	5	3	3
A63	8	5	8	6	6
A64	20	11	10	13	13

ARC	FROM N.	TO N.	T. COST
NrA1	1	8	7
NrA2	10	3	6
NrA3	16	12	6
NrA4	28	27	10
NrA5	27	24	5
NrA6	5	8	8
NrA7	8	1	7
NrA8	13	8	6
NrA9	28	24	2
NrA10	9	2	5
NrA11	1	5	3
NrA12	23	18	3
NrA13	12	16	6
NrA14	17	18	5
NrA15	24	28	2
NrA16	18	17	5
NrA17	15	8	10
NrA18	21	28	5
NrA19	9	15	3
NrA20	28	21	5
NrA21	3	10	6
NrA22	16	20	3
NrA23	11	12	5
NrA24	27	20	5
NrA25	30	25	1
NrA26	16	13	8
NrA27	29	25	3
NrA28	15	9	3
NrA29	9	10	3
NrA30	23	30	3
NrA31	25	29	3
NrA32	21	24	5
